12
0 62 33 87 75 30 71 49 25 16 93 36
62 0 28 58 31 41 66 39 37 33 67 71
33 28 0 42 56 93 56 80 71 33 72 37
87 58 42 0 63 65 28 46 79 47 37 57
75 31 56 63 0 64 55 64 66 93 9 49
30 41 93 65 64 0 25 22 84 57 31 73
71 66 56 28 55 25 0 48 7 89 60 34
49 39 80 46 64 22 48 0 31 59 62 71
25 37 71 79 66 84 7 31 0 48 35 9
16 33 33 47 93 57 89 59 48 0 15 80
93 67 72 37 9 31 60 62 35 15 0 60
36 71 37 57 49 73 34 71 9 80 60 0
